<number of tasks>
50

<cycle time>
1000

<order strength>
0.597


<task times>
1 181
2 62
3 28
4 83
5 46
6 205
7 141
8 103
9 66
10 126
11 55
12 50
13 90
14 120
15 91
16 287
17 194
18 273
19 46
20 25
21 96
22 107
23 83
24 297
25 114
26 141
27 249
28 187
29 120
30 247
31 299
32 204
33 163
34 95
35 181
36 21
37 151
38 166
39 145
40 266
41 22
42 135
43 113
44 146
45 52
46 147
47 267
48 103
49 153
50 132

<precedence relations>
1,12
2,3
2,4
2,5
2,6
2,7
2,8
3,12
4,12
5,12
6,27
7,9
8,10
8,12
9,12
10,11
10,13
10,14
10,15
10,24
11,42
12,16
12,17
12,18
12,19
12,20
13,27
14,22
14,32
15,21
16,25
17,23
17,24
17,26
17,32
17,37
18,23
19,25
20,43
20,45
21,22
22,27
23,27
24,27
25,28
25,29
25,30
25,31
26,31
26,38
27,33
27,34
27,35
27,36
27,38
28,38
28,39
28,41
29,32
29,37
30,45
31,40
31,41
32,42
33,39
33,44
34,41
36,40
39,42
40,42
41,42
41,43
41,44
41,45
42,46
42,47
42,48
42,49
42,50

<end>
